compute msdvar all msd

log diffusion.log
thermo_style custom step c_msdvar[4]
thermo ?snapshot?

dump 1 all custom ?snapshot? diffusion.dump id type x y z modify append yes

reset_timestep 0

run ?diffusion?
 
unfix 1
unfix 2
undump 1