compute msdvar all msd
variable tot_msd equal msdvar[4]

log diffusion.log
thermo_style custom step tot_msd
thermo ?snapshot?

dump 1 all custom ?snapshot? diffusion.dump id type x y z

reset_timestep 0

run ?diffusion?
 
unfix 1
unfix 2
undump 1